c File: instances/18_0.15_3.col
c
c Description: Random graph of size 18 vertices and P(0.15000000000000002) of edges between any two vertices.
p col 18 153
e 1 4
e 2 10
e 2 11
e 2 13
e 3 4
e 3 11
e 5 15
e 6 8
e 7 9
e 9 10
e 9 11
e 9 17
e 10 11
e 10 18
e 12 13
e 13 14
e 15 17
e 16 18